0 30 84 56 - - - 75 - 80
30 0 65 - - - 70 - - 40
84 65 0 74 52 55 - 60 143 48
56 - 74 0 135 - - 20 - -
- - 52 135 0 70 - 122 98 80
70 - 55 - 70 0 63 - 82 35
- 70 - - - 63 0 - 120 57
75 - 135 20 122 - - 0 - -
- - 143 - 98 82 120 - 0 -
80 40 48 - 80 35 57 - - 0